n = 100;
C = 529;
w = [139,375,825,937,212,388,32,24,405,660,561,590,410,456,49,893,883,476,626,308,531,905,361,45,674,322,864,879,595,106,693,902,759,69,770,207,816,587,819,228,14,360,283,390,933,270,576,470,853,561,186,370,73,658,736,374,777,773,203,177,849,379,864,100,319,545,18,174,912,599,655,459,451,586,990,472,365,962,711,169,908,477,627,171,4,914,799,562,821,614,998,612,802,803,716,764,739,764,51,784];
p = [90,331,870,991,285,306,-66,13,386,575,648,577,460,441,95,887,979,455,721,289,504,872,264,113,699,281,836,891,597,107,736,851,839,4,698,217,914,555,773,281,13,325,192,366,1027,314,654,474,884,594,108,328,88,634,767,307,713,729,236,111,896,478,935,4,267,488,117,126,1006,606,581,537,519,606,920,558,346,1007,636,209,941,576,672,203,-87,920,789,561,888,684,972,588,857,861,782,744,663,761,73,735];
